p edge 716
e 0 12
e 0 116
e 0 123
e 0 137
e 0 138
e 0 206
e 1 133
e 1 209
e 1 302
e 1 345
e 2 11
e 2 52
e 2 94
e 2 207
e 2 304
e 2 447
e 3 4
e 3 95
e 3 353
e 3 425
e 3 441
e 3 537
e 4 5
e 4 95
e 4 477
e 5 95
e 5 433
e 5 478
e 6 9
e 6 423
e 6 441
e 6 537
e 7 224
e 7 225
e 7 226
e 7 227
e 7 230
e 8 18
e 8 162
e 8 287
e 8 517
e 9 95
e 9 306
e 9 423
e 9 536
e 9 537
e 9 545
e 10 91
e 10 92
e 10 139
e 10 452
e 10 453
e 11 92
e 11 93
e 11 94
e 11 196
e 11 303
e 11 442
e 11 443
e 11 447
e 11 448
e 11 539
e 12 124
e 12 137
e 12 435
e 12 534
e 13 16
e 13 17
e 13 95
e 13 534
e 14 132
e 14 133
e 14 134
e 14 302
e 14 444
e 15 55
e 15 142
e 15 446
e 16 17
e 16 53
e 16 116
e 16 117
e 16 121
e 16 125
e 16 136
e 16 137
e 16 138
e 16 354
e 16 534
e 17 95
e 17 136
e 17 540
e 18 162
e 18 220
e 18 232
e 18 233
e 18 234
e 18 235
e 18 517
e 18 632
e 18 715
e 19 513
e 19 639
e 19 650
e 19 652
e 19 670
e 19 715
e 20 21
e 20 25
e 20 59
e 20 187
e 20 379
e 20 450
e 21 22
e 21 25
e 21 58
e 21 186
e 21 187
e 21 189
e 21 191
e 21 192
e 21 193
e 21 195
e 21 324
e 21 405
e 22 60
e 22 191
e 22 194
e 23 162
e 23 330
e 23 514
e 23 517
e 23 693
e 24 25
e 24 366
e 24 401
e 24 611
e 24 702
e 25 163
e 25 275
e 25 310
e 25 318
e 25 324
e 25 366
e 25 376
e 25 379
e 25 401
e 25 599
e 26 401
e 26 611
e 26 612
e 26 613
e 26 702
e 27 63
e 27 151
e 27 430
e 27 685
e 27 689
e 27 711
e 27 713
e 28 385
e 28 388
e 28 676
e 29 173
e 29 278
e 29 385
e 29 676
e 30 31
e 30 176
e 30 275
e 30 376
e 31 170
e 31 174
e 31 176
e 32 33
e 32 34
e 32 38
e 32 276
e 32 391
e 33 38
e 33 276
e 33 280
e 33 672
e 33 673
e 34 38
e 34 391
e 34 392
e 35 36
e 35 222
e 35 223
e 35 544
e 35 697
e 36 37
e 36 223
e 36 306
e 36 697
e 37 306
e 37 556
e 37 600
e 37 697
e 37 698
e 37 699
e 37 701
e 38 152
e 38 382
e 38 384
e 38 395
e 38 672
e 39 152
e 39 177
e 39 387
e 39 672
e 39 674
e 39 677
e 40 173
e 40 175
e 40 279
e 40 377
e 40 671
e 40 675
e 40 680
e 41 296
e 41 297
e 41 298
e 41 519
e 41 520
e 41 521
e 41 523
e 41 526
e 41 579
e 41 581
e 42 294
e 42 301
e 42 518
e 42 527
e 42 580
e 42 590
e 43 44
e 43 173
e 43 671
e 43 677
e 43 680
e 44 173
e 44 281
e 44 677
e 45 46
e 45 101
e 45 135
e 45 175
e 45 243
e 45 563
e 45 566
e 45 696
e 46 135
e 46 696
e 47 114
e 47 115
e 47 128
e 47 129
e 47 280
e 47 283
e 47 377
e 47 426
e 48 49
e 48 250
e 48 251
e 48 252
e 48 426
e 48 618
e 48 664
e 49 239
e 49 243
e 49 250
e 49 618
e 49 619
e 49 623
e 50 51
e 50 351
e 50 352
e 50 621
e 51 215
e 51 216
e 51 349
e 51 350
e 51 352
e 51 358
e 51 621
e 52 92
e 52 207
e 52 447
e 53 121
e 53 354
e 53 364
e 54 271
e 54 353
e 54 425
e 54 454
e 54 479
e 55 93
e 55 208
e 55 359
e 55 446
e 55 455
e 55 621
e 56 90
e 56 201
e 56 214
e 56 270
e 56 341
e 56 355
e 56 356
e 56 609
e 56 621
e 57 90
e 57 271
e 57 356
e 57 454
e 57 476
e 58 186
e 58 188
e 58 189
e 58 190
e 59 139
e 59 186
e 59 187
e 59 450
e 60 188
e 60 189
e 60 190
e 60 193
e 60 194
e 61 187
e 61 193
e 62 70
e 62 409
e 62 474
e 62 484
e 62 601
e 63 282
e 63 372
e 63 373
e 63 407
e 63 553
e 63 711
e 64 80
e 64 324
e 64 398
e 64 595
e 64 686
e 64 687
e 65 320
e 65 324
e 65 368
e 65 405
e 65 595
e 66 72
e 66 73
e 66 74
e 66 643
e 67 307
e 67 371
e 67 374
e 67 667
e 68 79
e 68 305
e 68 366
e 68 411
e 68 412
e 69 72
e 69 75
e 69 76
e 69 288
e 69 405
e 70 78
e 70 473
e 70 483
e 70 484
e 70 502
e 71 77
e 71 110
e 71 371
e 71 408
e 71 704
e 72 74
e 72 75
e 72 405
e 72 550
e 72 598
e 73 291
e 73 319
e 73 320
e 73 321
e 73 322
e 73 643
e 74 320
e 74 405
e 75 76
e 75 598
e 76 288
e 76 596
e 76 598
e 77 408
e 77 704
e 78 312
e 78 327
e 78 336
e 78 483
e 78 502
e 78 638
e 79 168
e 79 309
e 79 707
e 80 324
e 80 686
e 81 83
e 81 84
e 81 85
e 81 86
e 81 87
e 81 88
e 81 646
e 81 647
e 82 83
e 82 628
e 83 84
e 83 85
e 83 87
e 83 628
e 83 646
e 83 648
e 85 87
e 85 420
e 85 647
e 85 648
e 86 88
e 86 295
e 86 542
e 86 628
e 86 646
e 86 647
e 88 646
e 89 93
e 89 94
e 89 139
e 89 186
e 89 452
e 89 453
e 89 468
e 89 621
e 90 198
e 90 270
e 90 271
e 90 356
e 91 92
e 91 94
e 91 207
e 91 304
e 91 452
e 92 95
e 92 139
e 92 207
e 92 447
e 92 448
e 92 539
e 93 94
e 93 141
e 93 196
e 93 347
e 93 357
e 93 455
e 93 621
e 94 304
e 94 452
e 95 97
e 95 98
e 95 139
e 95 162
e 95 222
e 95 223
e 95 232
e 95 306
e 95 344
e 95 363
e 95 433
e 95 463
e 95 534
e 95 537
e 95 538
e 95 539
e 95 540
e 95 627
e 96 212
e 96 216
e 96 288
e 96 349
e 96 405
e 96 468
e 96 596
e 96 598
e 97 209
e 97 344
e 97 345
e 97 462
e 97 463
e 98 99
e 98 463
e 98 464
e 98 538
e 99 456
e 99 462
e 99 463
e 99 464
e 99 465
e 100 220
e 100 221
e 101 255
e 101 563
e 101 696
e 102 161
e 102 167
e 102 655
e 102 708
e 103 314
e 103 337
e 103 338
e 103 406
e 103 413
e 103 660
e 104 166
e 104 167
e 104 710
e 105 480
e 105 481
e 105 604
e 105 685
e 105 689
e 105 690
e 106 316
e 106 317
e 106 490
e 106 528
e 106 529
e 106 562
e 106 615
e 106 684
e 107 108
e 107 237
e 107 241
e 107 565
e 107 566
e 108 565
e 108 566
e 108 640
e 109 429
e 109 430
e 109 494
e 109 498
e 109 499
e 109 530
e 110 371
e 110 374
e 110 408
e 111 253
e 111 566
e 111 640
e 111 641
e 111 642
e 112 246
e 112 247
e 112 248
e 112 249
e 112 624
e 112 665
e 113 114
e 113 115
e 113 574
e 113 575
e 114 129
e 114 572
e 115 389
e 115 390
e 115 575
e 116 117
e 116 138
e 116 535
e 117 121
e 117 439
e 118 119
e 118 348
e 118 437
e 118 439
e 118 535
e 119 120
e 119 203
e 119 364
e 119 445
e 120 121
e 120 364
e 120 439
e 121 439
e 122 124
e 122 270
e 122 434
e 122 435
e 123 124
e 123 205
e 123 206
e 123 341
e 124 270
e 124 341
e 125 126
e 125 134
e 125 136
e 125 354
e 126 132
e 126 134
e 126 136
e 126 346
e 126 540
e 127 128
e 127 129
e 127 238
e 127 426
e 127 572
e 128 129
e 128 426
e 129 572
e 130 131
e 130 257
e 130 258
e 130 260
e 130 264
e 130 266
e 130 460
e 131 143
e 131 145
e 131 264
e 131 266
e 131 656
e 131 657
e 131 658
e 132 134
e 132 444
e 132 540
e 133 302
e 133 444
e 134 219
e 134 302
e 134 354
e 135 173
e 135 174
e 135 175
e 135 176
e 135 277
e 135 278
e 135 543
e 135 556
e 135 696
e 135 699
e 135 700
e 136 346
e 136 540
e 137 138
e 137 534
e 139 140
e 139 186
e 139 272
e 139 273
e 139 274
e 139 453
e 139 626
e 139 627
e 141 347
e 141 357
e 141 466
e 141 467
e 142 208
e 142 218
e 142 219
e 142 302
e 143 254
e 143 259
e 143 262
e 143 265
e 143 657
e 143 658
e 144 145
e 144 146
e 144 263
e 144 264
e 145 146
e 145 147
e 145 264
e 145 265
e 146 147
e 146 255
e 146 263
e 147 255
e 147 265
e 148 264
e 148 451
e 148 457
e 148 459
e 148 460
e 148 629
e 149 158
e 149 318
e 149 324
e 149 419
e 149 593
e 150 430
e 150 530
e 150 604
e 150 689
e 151 430
e 151 493
e 151 553
e 152 382
e 152 672
e 153 396
e 153 397
e 153 416
e 153 557
e 153 706
e 154 164
e 154 410
e 154 418
e 154 557
e 154 703
e 155 156
e 155 319
e 155 321
e 155 322
e 155 397
e 156 164
e 156 292
e 156 321
e 156 397
e 156 706
e 157 160
e 157 161
e 157 165
e 157 366
e 157 412
e 158 159
e 158 290
e 158 311
e 158 593
e 159 166
e 159 290
e 159 311
e 160 161
e 160 166
e 160 167
e 161 714
e 162 222
e 162 232
e 162 517
e 162 693
e 163 178
e 163 182
e 163 183
e 163 275
e 163 381
e 163 393
e 163 401
e 163 668
e 164 552
e 164 633
e 164 703
e 164 706
e 165 166
e 165 311
e 165 366
e 166 710
e 167 413
e 167 415
e 167 710
e 168 180
e 168 305
e 168 309
e 168 373
e 168 634
e 169 170
e 169 171
e 169 172
e 169 174
e 169 277
e 170 171
e 170 174
e 170 275
e 171 182
e 171 275
e 172 181
e 172 182
e 172 277
e 173 175
e 173 278
e 173 281
e 173 671
e 173 676
e 174 176
e 174 277
e 175 239
e 175 243
e 175 279
e 176 278
e 177 387
e 177 675
e 177 677
e 177 680
e 178 277
e 178 561
e 178 668
e 178 669
e 179 180
e 179 309
e 179 635
e 179 644
e 180 634
e 180 636
e 181 182
e 181 183
e 181 277
e 181 669
e 182 183
e 182 393
e 183 668
e 183 669
e 184 185
e 184 449
e 184 460
e 185 449
e 185 450
e 185 460
e 186 187
e 186 190
e 186 405
e 186 468
e 187 190
e 187 192
e 187 193
e 187 195
e 188 189
e 188 190
e 189 191
e 189 194
e 191 194
e 192 195
e 193 195
e 196 303
e 196 357
e 196 466
e 197 203
e 197 341
e 197 348
e 197 355
e 197 445
e 197 621
e 198 270
e 198 271
e 198 340
e 198 479
e 199 217
e 199 347
e 199 442
e 199 443
e 199 467
e 199 539
e 200 204
e 200 213
e 200 339
e 200 352
e 200 358
e 200 468
e 201 214
e 201 609
e 202 210
e 202 212
e 202 374
e 202 424
e 202 617
e 203 348
e 203 445
e 204 213
e 204 350
e 204 358
e 205 206
e 205 341
e 205 438
e 206 438
e 206 535
e 207 304
e 208 209
e 208 302
e 208 455
e 209 302
e 209 345
e 209 455
e 209 456
e 209 462
e 210 211
e 210 424
e 210 469
e 211 424
e 211 440
e 211 469
e 212 216
e 212 374
e 212 617
e 212 620
e 213 350
e 213 468
e 214 215
e 214 609
e 214 620
e 214 621
e 215 216
e 215 620
e 215 621
e 216 349
e 216 620
e 217 347
e 217 465
e 217 538
e 217 539
e 218 219
e 218 365
e 218 446
e 219 302
e 219 354
e 219 365
e 220 221
e 220 517
e 220 652
e 220 715
e 221 652
e 222 223
e 222 225
e 222 229
e 222 230
e 222 544
e 222 693
e 222 694
e 223 224
e 223 225
e 223 228
e 223 306
e 224 225
e 224 226
e 224 228
e 224 230
e 225 226
e 225 227
e 225 229
e 227 229
e 227 230
e 229 230
e 231 306
e 231 485
e 231 602
e 232 235
e 232 363
e 232 632
e 233 234
e 233 235
e 234 235
e 236 427
e 236 428
e 236 497
e 236 499
e 236 555
e 237 240
e 237 241
e 237 566
e 238 426
e 238 567
e 238 572
e 238 624
e 238 664
e 239 243
e 239 279
e 239 619
e 240 245
e 240 566
e 240 622
e 241 565
e 241 578
e 241 622
e 242 249
e 242 250
e 242 566
e 242 623
e 242 665
e 243 566
e 243 623
e 244 564
e 244 571
e 244 578
e 244 622
e 244 624
e 245 246
e 245 249
e 245 566
e 245 622
e 246 247
e 246 249
e 246 622
e 247 622
e 247 624
e 248 251
e 248 252
e 248 624
e 248 665
e 249 566
e 249 665
e 250 251
e 250 623
e 250 665
e 251 252
e 251 665
e 252 624
e 252 664
e 253 566
e 253 641
e 254 261
e 254 262
e 254 269
e 254 285
e 254 657
e 255 256
e 255 259
e 255 260
e 255 261
e 255 263
e 255 265
e 255 268
e 255 459
e 255 563
e 255 566
e 256 258
e 256 260
e 256 266
e 256 268
e 257 260
e 257 450
e 258 260
e 258 266
e 259 261
e 259 262
e 259 265
e 261 262
e 261 268
e 261 269
e 263 264
e 263 459
e 264 460
e 266 267
e 266 268
e 266 656
e 267 268
e 267 269
e 267 284
e 267 656
e 269 284
e 269 285
e 270 340
e 270 422
e 270 478
e 271 454
e 271 479
e 272 273
e 272 274
e 272 420
e 273 274
e 273 420
e 273 421
e 273 509
e 273 511
e 273 512
e 273 513
e 273 626
e 275 376
e 275 381
e 275 393
e 276 280
e 276 283
e 276 389
e 277 556
e 277 561
e 278 376
e 279 377
e 279 426
e 279 619
e 280 283
e 280 377
e 280 673
e 281 388
e 281 676
e 281 677
e 282 407
e 282 711
e 282 713
e 283 390
e 284 285
e 284 656
e 285 657
e 286 287
e 286 517
e 287 517
e 288 405
e 288 596
e 289 374
e 289 403
e 289 408
e 289 424
e 289 536
e 289 597
e 290 593
e 290 710
e 291 292
e 291 321
e 291 643
e 292 321
e 292 603
e 292 633
e 292 643
e 293 295
e 293 521
e 293 522
e 293 526
e 293 582
e 293 584
e 293 628
e 294 301
e 294 518
e 294 523
e 294 526
e 294 589
e 294 592
e 295 522
e 295 525
e 295 542
e 295 628
e 296 299
e 296 521
e 296 524
e 296 527
e 296 579
e 296 586
e 296 588
e 296 591
e 297 298
e 297 300
e 297 579
e 297 585
e 297 586
e 298 300
e 298 581
e 299 518
e 299 524
e 299 581
e 299 588
e 300 581
e 300 586
e 300 588
e 301 580
e 303 442
e 303 466
e 303 467
e 305 532
e 305 553
e 306 545
e 306 548
e 306 554
e 306 559
e 306 560
e 306 600
e 306 602
e 306 607
e 307 369
e 307 552
e 307 603
e 307 633
e 308 374
e 308 550
e 308 598
e 308 667
e 309 707
e 310 311
e 310 366
e 310 599
e 311 419
e 312 327
e 312 483
e 312 551
e 313 323
e 313 427
e 313 496
e 313 504
e 314 338
e 314 416
e 314 660
e 314 679
e 315 329
e 315 369
e 315 370
e 315 371
e 315 410
e 315 472
e 315 547
e 315 552
e 315 558
e 316 317
e 316 529
e 317 529
e 317 610
e 317 615
e 318 324
e 318 419
e 319 320
e 319 322
e 319 397
e 320 368
e 320 396
e 320 405
e 320 681
e 321 322
e 323 503
e 323 504
e 323 555
e 323 556
e 323 682
e 324 405
e 324 593
e 324 595
e 324 686
e 325 326
e 325 336
e 325 546
e 325 551
e 326 327
e 326 336
e 326 551
e 327 551
e 328 329
e 328 410
e 328 487
e 328 500
e 328 692
e 329 410
e 329 472
e 330 331
e 330 333
e 330 514
e 330 515
e 330 517
e 331 332
e 331 333
e 331 516
e 331 517
e 332 333
e 332 515
e 332 516
e 333 515
e 334 372
e 334 373
e 334 487
e 334 634
e 334 636
e 334 637
e 335 337
e 335 338
e 335 368
e 335 396
e 335 398
e 335 594
e 335 687
e 336 407
e 336 638
e 336 691
e 337 367
e 337 406
e 337 414
e 337 687
e 338 396
e 338 416
e 339 351
e 339 352
e 339 468
e 339 621
e 340 477
e 340 478
e 340 479
e 341 348
e 341 355
e 341 438
e 342 343
e 342 440
e 342 441
e 342 470
e 342 536
e 343 441
e 343 470
e 343 475
e 344 345
e 344 444
e 344 540
e 345 444
e 346 540
e 347 455
e 347 465
e 348 437
e 349 350
e 349 468
e 350 358
e 350 468
e 351 352
e 351 621
e 352 358
e 353 425
e 353 477
e 353 479
e 354 365
e 355 621
e 356 470
e 356 475
e 356 476
e 356 609
e 357 466
e 359 446
e 359 621
e 360 361
e 360 362
e 360 625
e 360 627
e 361 625
e 361 626
e 361 627
e 362 363
e 362 625
e 362 627
e 362 631
e 362 632
e 363 627
e 363 632
e 364 365
e 364 445
e 365 446
e 366 411
e 366 489
e 366 532
e 366 611
e 366 683
e 366 705
e 367 414
e 367 686
e 367 687
e 368 594
e 368 595
e 368 681
e 369 371
e 369 552
e 370 533
e 370 547
e 370 558
e 371 374
e 371 547
e 371 704
e 371 709
e 372 407
e 372 500
e 372 501
e 372 638
e 373 553
e 373 634
e 374 408
e 374 598
e 375 378
e 375 388
e 375 674
e 375 677
e 376 378
e 376 379
e 376 385
e 377 383
e 377 386
e 377 426
e 377 673
e 377 675
e 378 379
e 378 385
e 378 388
e 378 674
e 379 380
e 379 382
e 379 384
e 379 392
e 379 394
e 379 573
e 379 674
e 380 389
e 380 391
e 380 573
e 380 577
e 381 393
e 382 384
e 382 395
e 382 674
e 383 386
e 383 387
e 383 673
e 384 392
e 384 394
e 384 395
e 385 388
e 385 676
e 386 387
e 386 675
e 387 672
e 387 673
e 387 675
e 388 676
e 388 677
e 389 390
e 389 391
e 389 575
e 389 577
e 391 392
e 392 394
e 396 397
e 396 416
e 396 681
e 397 706
e 398 594
e 398 687
e 399 400
e 399 659
e 399 660
e 399 678
e 400 404
e 400 410
e 400 418
e 400 487
e 400 635
e 400 637
e 400 659
e 400 678
e 401 561
e 401 610
e 401 612
e 401 702
e 402 409
e 402 549
e 402 601
e 402 630
e 402 663
e 403 408
e 403 536
e 403 545
e 403 597
e 404 417
e 404 418
e 404 557
e 404 678
e 405 468
e 406 413
e 406 415
e 407 638
e 407 691
e 407 713
e 408 597
e 408 645
e 408 704
e 409 484
e 409 549
e 409 601
e 410 418
e 410 487
e 410 552
e 411 412
e 412 707
e 412 714
e 413 415
e 413 655
e 414 415
e 414 593
e 414 710
e 415 710
e 416 417
e 416 679
e 417 557
e 417 678
e 419 599
e 420 421
e 420 647
e 420 648
e 421 488
e 421 512
e 421 639
e 421 647
e 422 433
e 422 434
e 422 478
e 423 441
e 423 536
e 424 536
e 425 454
e 426 618
e 426 619
e 426 664
e 427 496
e 427 555
e 428 429
e 428 499
e 428 555
e 429 431
e 429 499
e 429 530
e 429 555
e 429 556
e 430 493
e 430 530
e 430 689
e 431 432
e 431 530
e 431 556
e 431 604
e 432 471
e 432 556
e 432 600
e 432 690
e 433 436
e 433 534
e 434 435
e 434 436
e 435 436
e 435 534
e 436 534
e 437 438
e 437 535
e 438 535
e 439 535
e 440 469
e 440 470
e 440 536
e 441 454
e 441 475
e 441 537
e 442 443
e 443 539
e 444 540
e 445 446
e 445 621
e 446 621
e 447 448
e 449 450
e 449 451
e 449 460
e 450 451
e 450 459
e 450 460
e 450 573
e 451 458
e 451 459
e 451 460
e 451 461
e 451 629
e 452 453
e 454 475
e 454 476
e 455 456
e 455 465
e 456 462
e 456 465
e 457 458
e 457 459
e 457 461
e 457 629
e 458 461
e 459 461
e 459 566
e 459 569
e 459 570
e 459 573
e 459 641
e 459 642
e 462 463
e 464 465
e 464 538
e 465 538
e 466 467
e 468 621
e 469 470
e 469 617
e 470 475
e 470 609
e 471 481
e 471 482
e 471 600
e 472 474
e 472 558
e 472 654
e 472 692
e 473 474
e 473 500
e 473 502
e 473 692
e 474 654
e 474 692
e 475 476
e 477 478
e 477 479
e 480 481
e 480 546
e 480 712
e 481 546
e 481 690
e 482 546
e 482 551
e 482 600
e 483 484
e 483 559
e 484 486
e 484 531
e 485 486
e 485 531
e 485 559
e 485 602
e 486 531
e 486 559
e 487 500
e 487 637
e 488 542
e 488 639
e 488 647
e 488 670
e 489 490
e 489 529
e 489 532
e 489 705
e 490 491
e 490 492
e 490 493
e 490 532
e 490 553
e 491 492
e 491 508
e 491 528
e 491 606
e 492 493
e 492 495
e 493 494
e 494 495
e 494 498
e 495 497
e 495 606
e 496 497
e 496 504
e 496 606
e 497 498
e 497 499
e 498 499
e 500 501
e 500 502
e 500 692
e 501 502
e 501 638
e 502 638
e 503 504
e 503 505
e 503 605
e 503 682
e 504 506
e 504 606
e 505 506
e 505 507
e 505 605
e 506 508
e 506 606
e 507 508
e 507 562
e 507 605
e 507 684
e 507 688
e 508 528
e 509 513
e 509 625
e 509 626
e 509 715
e 510 511
e 510 512
e 510 513
e 511 512
e 511 513
e 512 513
e 512 639
e 513 639
e 513 715
e 514 515
e 514 516
e 514 517
e 515 516
e 516 517
e 518 519
e 518 520
e 518 523
e 518 581
e 518 590
e 519 520
e 519 581
e 520 523
e 521 526
e 521 628
e 521 648
e 522 525
e 522 582
e 523 526
e 523 589
e 524 527
e 524 590
e 525 582
e 525 583
e 526 584
e 526 587
e 526 592
e 527 580
e 527 590
e 528 562
e 529 613
e 529 683
e 529 705
e 530 604
e 531 549
e 531 602
e 532 553
e 533 547
e 533 661
e 533 662
e 538 539
e 541 542
e 542 647
e 542 650
e 542 651
e 542 670
e 543 544
e 543 693
e 543 695
e 543 696
e 543 699
e 544 694
e 544 695
e 544 697
e 544 699
e 544 701
e 545 554
e 545 608
e 545 645
e 546 551
e 546 691
e 547 608
e 547 649
e 547 709
e 548 560
e 548 607
e 548 662
e 549 560
e 549 602
e 549 663
e 550 598
e 550 643
e 550 667
e 551 559
e 551 600
e 552 633
e 554 607
e 554 608
e 555 556
e 556 561
e 556 600
e 556 682
e 556 698
e 556 700
e 557 703
e 557 706
e 558 601
e 558 654
e 558 661
e 559 600
e 560 602
e 560 630
e 560 663
e 561 610
e 561 614
e 561 616
e 561 682
e 562 684
e 563 566
e 564 565
e 564 571
e 564 578
e 565 568
e 565 571
e 565 578
e 565 640
e 566 623
e 566 640
e 566 641
e 567 571
e 567 572
e 567 573
e 567 576
e 567 577
e 567 666
e 568 571
e 568 640
e 568 642
e 569 570
e 569 571
e 569 642
e 570 571
e 570 573
e 570 666
e 571 624
e 571 642
e 571 666
e 572 574
e 573 577
e 573 666
e 574 575
e 574 576
e 575 576
e 575 577
e 576 577
e 578 622
e 579 585
e 579 591
e 580 583
e 580 587
e 580 592
e 581 588
e 582 583
e 582 584
e 583 584
e 583 587
e 584 587
e 585 586
e 585 591
e 586 588
e 586 591
e 587 592
e 593 686
e 593 710
e 594 595
e 596 598
e 601 654
e 601 661
e 603 633
e 603 643
e 603 667
e 604 689
e 604 690
e 605 616
e 605 682
e 605 688
e 607 662
e 608 645
e 608 649
e 608 662
e 609 617
e 609 620
e 610 612
e 610 613
e 610 614
e 610 615
e 611 613
e 611 683
e 611 702
e 612 613
e 613 683
e 614 615
e 614 684
e 615 684
e 616 682
e 616 684
e 616 688
e 617 620
e 618 619
e 624 664
e 625 626
e 625 631
e 625 715
e 626 627
e 628 646
e 628 648
e 630 661
e 630 662
e 631 632
e 631 715
e 632 715
e 634 636
e 635 636
e 635 637
e 635 659
e 636 637
e 639 670
e 640 642
e 641 642
e 644 659
e 644 707
e 644 708
e 644 714
e 645 649
e 645 704
e 649 709
e 650 651
e 650 652
e 650 653
e 650 670
e 651 653
e 652 653
e 655 659
e 655 660
e 655 708
e 656 657
e 660 679
e 668 669
e 671 680
e 672 673
e 674 677
e 678 679
e 683 705
e 684 688
e 685 689
e 685 712
e 691 712
e 691 713
e 693 694
e 693 695
e 694 695
e 697 701
e 698 699
e 698 700
e 699 700
e 699 701
e 703 706
e 704 709
e 707 714
e 708 714
e 712 713
c k 4
